p cnf 983
-14 -308
-15 -311
-16 -314
-17 -317
-18 -320
-19 -323
-20 -326
-21 -329
-22 -332
-23 -335
-24 -338
-25 -341
-26 -344
-27 345
-28 346
-29 347
-30 348
-31 349
-32 350
-33 351
-34 352
-35 353
-36 -15
-36 -16
15 16 36
-37 -17
-37 -18
17 18 37
-38 -19
-38 -20
19 20 38
-39 -21
-39 -22
21 22 39
-40 -23
-40 -24
23 24 40
-41 -25
-41 -26
25 26 41
-42 -27
-42 -28
27 28 42
-43 -29
-43 -30
29 30 43
-44 -31
-44 -32
31 32 44
-45 -33
-45 -34
33 34 45
-46 36
-46 37
-36 -37 46
-47 38
-47 39
-38 -39 47
-48 40
-48 41
-40 -41 48
-49 42
-49 43
-42 -43 49
-50 44
-50 45
-44 -45 50
-51 46
-51 47
-46 -47 51
-52 48
-52 49
-48 -49 52
-53 -35
-53 50
35 -50 53
-54 51
-54 52
-51 -52 54
-55 53
-55 54
-53 -54 55
-56 -14
-56 15
14 -15 56
-57 14
-57 -15
-14 15 57
-58 -56
-58 -57
56 57 58
-59 14
-59 15
-14 -15 59
-60 -14
-60 -58
14 58 60
-61 14
-61 58
-14 -58 61
-62 -60
-62 -61
60 61 62
-63 14
-63 -58
-14 58 63
-64 -59
-64 -63
59 63 64
-65 -15
-65 16
15 -16 65
-66 15
-66 -16
-15 16 66
-67 -65
-67 -66
65 66 67
-68 15
-68 16
-15 -16 68
-69 64
-69 -67
-64 67 69
-70 -64
-70 67
64 -67 70
-71 -69
-71 -70
69 70 71
-72 -64
-72 -67
64 67 72
-73 -68
-73 -72
68 72 73
-74 -16
-74 17
16 -17 74
-75 16
-75 -17
-16 17 75
-76 -74
-76 -75
74 75 76
-77 16
-77 17
-16 -17 77
-78 73
-78 -76
-73 76 78
-79 -73
-79 76
73 -76 79
-80 -78
-80 -79
78 79 80
-81 -73
-81 -76
73 76 81
-82 -77
-82 -81
77 81 82
-83 -17
-83 18
17 -18 83
-84 17
-84 -18
-17 18 84
-85 -83
-85 -84
83 84 85
-86 17
-86 18
-17 -18 86
-87 82
-87 -85
-82 85 87
-88 -82
-88 85
82 -85 88
-89 -87
-89 -88
87 88 89
-90 -82
-90 -85
82 85 90
-91 -86
-91 -90
86 90 91
-92 -18
-92 19
18 -19 92
-93 18
-93 -19
-18 19 93
-94 -92
-94 -93
92 93 94
-95 18
-95 19
-18 -19 95
-96 91
-96 -94
-91 94 96
-97 -91
-97 94
91 -94 97
-98 -96
-98 -97
96 97 98
-99 -91
-99 -94
91 94 99
-100 -95
-100 -99
95 99 100
-101 -19
-101 20
19 -20 101
-102 19
-102 -20
-19 20 102
-103 -101
-103 -102
101 102 103
-104 19
-104 20
-19 -20 104
-105 100
-105 -103
-100 103 105
-106 -100
-106 103
100 -103 106
-107 -105
-107 -106
105 106 107
-108 -100
-108 -103
100 103 108
-109 -104
-109 -108
104 108 109
-110 -20
-110 21
20 -21 110
-111 20
-111 -21
-20 21 111
-112 -110
-112 -111
110 111 112
-113 20
-113 21
-20 -21 113
-114 109
-114 -112
-109 112 114
-115 -109
-115 112
109 -112 115
-116 -114
-116 -115
114 115 116
-117 -109
-117 -112
109 112 117
-118 -113
-118 -117
113 117 118
-119 -21
-119 22
21 -22 119
-120 21
-120 -22
-21 22 120
-121 -119
-121 -120
119 120 121
-122 21
-122 22
-21 -22 122
-123 118
-123 -121
-118 121 123
-124 -118
-124 121
118 -121 124
-125 -123
-125 -124
123 124 125
-126 -118
-126 -121
118 121 126
-127 -122
-127 -126
122 126 127
-128 -22
-128 23
22 -23 128
-129 22
-129 -23
-22 23 129
-130 -128
-130 -129
128 129 130
-131 22
-131 23
-22 -23 131
-132 127
-132 -130
-127 130 132
-133 -127
-133 130
127 -130 133
-134 -132
-134 -133
132 133 134
-135 -127
-135 -130
127 130 135
-136 -131
-136 -135
131 135 136
-137 -23
-137 24
23 -24 137
-138 23
-138 -24
-23 24 138
-139 -137
-139 -138
137 138 139
-140 23
-140 24
-23 -24 140
-141 136
-141 -139
-136 139 141
-142 -136
-142 139
136 -139 142
-143 -141
-143 -142
141 142 143
-144 -136
-144 -139
136 139 144
-145 -140
-145 -144
140 144 145
-146 -24
-146 25
24 -25 146
-147 24
-147 -25
-24 25 147
-148 -146
-148 -147
146 147 148
-149 24
-149 25
-24 -25 149
-150 145
-150 -148
-145 148 150
-151 -145
-151 148
145 -148 151
-152 -150
-152 -151
150 151 152
-153 -145
-153 -148
145 148 153
-154 -149
-154 -153
149 153 154
-155 -25
-155 26
25 -26 155
-156 25
-156 -26
-25 26 156
-157 -155
-157 -156
155 156 157
-158 25
-158 26
-25 -26 158
-159 154
-159 -157
-154 157 159
-160 -154
-160 157
154 -157 160
-161 -159
-161 -160
159 160 161
-162 -154
-162 -157
154 157 162
-163 -158
-163 -162
158 162 163
-164 -26
-164 27
26 -27 164
-165 26
-165 -27
-26 27 165
-166 -164
-166 -165
164 165 166
-167 26
-167 27
-26 -27 167
-168 163
-168 -166
-163 166 168
-169 -163
-169 166
163 -166 169
-170 -168
-170 -169
168 169 170
-171 -163
-171 -166
163 166 171
-172 -167
-172 -171
167 171 172
-173 -27
-173 28
27 -28 173
-174 27
-174 -28
-27 28 174
-175 -173
-175 -174
173 174 175
-176 27
-176 28
-27 -28 176
-177 172
-177 -175
-172 175 177
-178 -172
-178 175
172 -175 178
-179 -177
-179 -178
177 178 179
-180 -172
-180 -175
172 175 180
-181 -176
-181 -180
176 180 181
-182 -28
-182 29
28 -29 182
-183 28
-183 -29
-28 29 183
-184 -182
-184 -183
182 183 184
-185 28
-185 29
-28 -29 185
-186 181
-186 -184
-181 184 186
-187 -181
-187 184
181 -184 187
-188 -186
-188 -187
186 187 188
-189 -181
-189 -184
181 184 189
-190 -185
-190 -189
185 189 190
-191 -29
-191 30
29 -30 191
-192 29
-192 -30
-29 30 192
-193 -191
-193 -192
191 192 193
-194 29
-194 30
-29 -30 194
-195 190
-195 -193
-190 193 195
-196 -190
-196 193
190 -193 196
-197 -195
-197 -196
195 196 197
-198 -190
-198 -193
190 193 198
-199 -194
-199 -198
194 198 199
-200 -30
-200 31
30 -31 200
-201 30
-201 -31
-30 31 201
-202 -200
-202 -201
200 201 202
-203 30
-203 31
-30 -31 203
-204 199
-204 -202
-199 202 204
-205 -199
-205 202
199 -202 205
-206 -204
-206 -205
204 205 206
-207 -199
-207 -202
199 202 207
-208 -203
-208 -207
203 207 208
-209 -31
-209 32
31 -32 209
-210 31
-210 -32
-31 32 210
-211 -209
-211 -210
209 210 211
-212 31
-212 32
-31 -32 212
-213 208
-213 -211
-208 211 213
-214 -208
-214 211
208 -211 214
-215 -213
-215 -214
213 214 215
-216 -208
-216 -211
208 211 216
-217 -212
-217 -216
212 216 217
-218 -32
-218 33
32 -33 218
-219 32
-219 -33
-32 33 219
-220 -218
-220 -219
218 219 220
-221 32
-221 33
-32 -33 221
-222 217
-222 -220
-217 220 222
-223 -217
-223 220
217 -220 223
-224 -222
-224 -223
222 223 224
-225 -217
-225 -220
217 220 225
-226 -221
-226 -225
221 225 226
-227 -33
-227 34
33 -34 227
-228 33
-228 -34
-33 34 228
-229 -227
-229 -228
227 228 229
-230 33
-230 34
-33 -34 230
-231 226
-231 -229
-226 229 231
-232 -226
-232 229
226 -229 232
-233 -231
-233 -232
231 232 233
-234 -226
-234 -229
226 229 234
-235 -230
-235 -234
230 234 235
-236 -34
-236 35
34 -35 236
-237 34
-237 -35
-34 35 237
-238 -236
-238 -237
236 237 238
-239 34
-239 35
-34 -35 239
-240 235
-240 -238
-235 238 240
-241 -235
-241 238
235 -238 241
-242 -240
-242 -241
240 241 242
-243 -235
-243 -238
235 238 243
-244 -239
-244 -243
239 243 244
-245 14
-245 -62
-14 62 245
-246 -14
-246 16
14 -16 246
-247 -245
-247 -246
245 246 247
-248 14
-248 -71
-14 71 248
-249 -14
-249 17
14 -17 249
-250 -248
-250 -249
248 249 250
-251 14
-251 -80
-14 80 251
-252 -14
-252 18
14 -18 252
-253 -251
-253 -252
251 252 253
-254 14
-254 -89
-14 89 254
-255 -14
-255 19
14 -19 255
-256 -254
-256 -255
254 255 256
-257 14
-257 -98
-14 98 257
-258 -14
-258 20
14 -20 258
-259 -257
-259 -258
257 258 259
-260 14
-260 -107
-14 107 260
-261 -14
-261 21
14 -21 261
-262 -260
-262 -261
260 261 262
-263 14
-263 -116
-14 116 263
-264 -14
-264 22
14 -22 264
-265 -263
-265 -264
263 264 265
-266 14
-266 -125
-14 125 266
-267 -14
-267 23
14 -23 267
-268 -266
-268 -267
266 267 268
-269 14
-269 -134
-14 134 269
-270 -14
-270 24
14 -24 270
-271 -269
-271 -270
269 270 271
-272 14
-272 -143
-14 143 272
-273 -14
-273 25
14 -25 273
-274 -272
-274 -273
272 273 274
-275 14
-275 -152
-14 152 275
-276 -14
-276 26
14 -26 276
-277 -275
-277 -276
275 276 277
-278 14
-278 -161
-14 161 278
-279 -14
-279 27
14 -27 279
-280 -278
-280 -279
278 279 280
-281 14
-281 -170
-14 170 281
-282 -14
-282 28
14 -28 282
-283 -281
-283 -282
281 282 283
-284 14
-284 -179
-14 179 284
-285 -14
-285 29
14 -29 285
-286 -284
-286 -285
284 285 286
-287 14
-287 -188
-14 188 287
-288 -14
-288 30
14 -30 288
-289 -287
-289 -288
287 288 289
-290 14
-290 -197
-14 197 290
-291 -14
-291 31
14 -31 291
-292 -290
-292 -291
290 291 292
-293 14
-293 -206
-14 206 293
-294 -14
-294 32
14 -32 294
-295 -293
-295 -294
293 294 295
-296 14
-296 -215
-14 215 296
-297 -14
-297 33
14 -33 297
-298 -296
-298 -297
296 297 298
-299 14
-299 -224
-14 224 299
-300 -14
-300 34
14 -34 300
-301 -299
-301 -300
299 300 301
-302 14
-302 -233
-14 233 302
-303 -14
-303 35
14 -35 303
-304 -302
-304 -303
302 303 304
-305 14
-305 -242
-14 242 305
-306 1
-306 55
-1 -55 306
-307 -55
-307 56
55 -56 307
-308 -306
-308 -307
306 307 308
-309 2
-309 55
-2 -55 309
-310 -55
-310 -247
55 247 310
-311 -309
-311 -310
309 310 311
-312 3
-312 55
-3 -55 312
-313 -55
-313 -250
55 250 313
-314 -312
-314 -313
312 313 314
-315 4
-315 55
-4 -55 315
-316 -55
-316 -253
55 253 316
-317 -315
-317 -316
315 316 317
-318 5
-318 55
-5 -55 318
-319 -55
-319 -256
55 256 319
-320 -318
-320 -319
318 319 320
-321 6
-321 55
-6 -55 321
-322 -55
-322 -259
55 259 322
-323 -321
-323 -322
321 322 323
-324 7
-324 55
-7 -55 324
-325 -55
-325 -262
55 262 325
-326 -324
-326 -325
324 325 326
-327 8
-327 55
-8 -55 327
-328 -55
-328 -265
55 265 328
-329 -327
-329 -328
327 328 329
-330 9
-330 55
-9 -55 330
-331 -55
-331 -268
55 268 331
-332 -330
-332 -331
330 331 332
-333 10
-333 55
-10 -55 333
-334 -55
-334 -271
55 271 334
-335 -333
-335 -334
333 334 335
-336 11
-336 55
-11 -55 336
-337 -55
-337 -274
55 274 337
-338 -336
-338 -337
336 337 338
-339 12
-339 55
-12 -55 339
-340 -55
-340 -277
55 277 340
-341 -339
-341 -340
339 340 341
-342 13
-342 55
-13 -55 342
-343 -55
-343 -280
55 280 343
-344 -342
-344 -343
342 343 344
-345 -55
-345 -283
55 283 345
-346 -55
-346 -286
55 286 346
-347 -55
-347 -289
55 289 347
-348 -55
-348 -292
55 292 348
-349 -55
-349 -295
55 295 349
-350 -55
-350 -298
55 298 350
-351 -55
-351 -301
55 301 351
-352 -55
-352 -304
55 304 352
-353 -55
-353 305
55 -305 353
-354 -35
-354 244
35 -244 354
-355 14
-355 -354
-14 354 355
355
